0001 5
0002 7
0003 1
0004 5
0005 1
0006 6
0007 6
0008 6
0009 3
0010 3
0011 3
0012 9
0013 3
0014 3
0015 3
0016 3
0017 1
0018 2
0019 6
0020 2
0021 10
0022 1
0023 6
0024 6
0025 6
0026 2
0027 11
0028 5
0029 1
0030 12
0031 2
0032 2
0033 2
0034 12
0035 11
0036 12
0037 12
0038 13
0039 1
0040 2
0041 6
0042 2
0043 13
0044 1
0045 2
0046 10
0047 13
0048 7
0049 1
0050 11
0051 10
0052 12
0053 11
0054 11
0055 12
0056 11
0057 11
0058 6
0059 13
0060 1
0061 10
0062 6
0063 10
0064 10
0065 1
0066 2
0067 6
0068 4
0069 4
0070 4
0071 4
0072 3
0073 13
0074 13
0075 13
0076 13
0077 10
0078 11
0079 11
0080 12
0081 2
0082 10
0083 2
0084 2
0085 10
0086 10
0087 13
0088 1
0089 13
0090 2
0091 2
0092 10
0093 1
0094 10
0095 3
0096 3
0097 7
0098 8
0099 8
0100 3
0101 8
0102 8
0103 8
0104 8
0105 6
0106 6
0107 12
0108 12
0109 11
0110 11
0111 11
0112 2
0113 12
0114 10
0115 3
0116 10
0117 2
0118 10
0119 10
0120 4
0121 6
0122 10
0123 13
0124 1
0125 6
0126 13
0127 13
0128 13
0129 1
0130 12
0131 5
0132 9
0133 7
0134 2
0135 13
0136 9
0137 10
0138 8
0139 4
